
Gurobi 6.0.4 (win64) logging started 06/16/15 10:56:40

Read LP format model from file E:\Eigene Dateien\Downloads\Michi shit\VRPTWMS-master\VRPTWMS\instances\mip\fuel\N8-C_DV100-C_SV25_F5_0_No_1.lp
Reading time = 0.00 seconds
(null): 417 rows, 208 columns, 1715 nonzeros
Optimize a model with 417 rows, 208 columns and 1715 nonzeros
Model has 576 quadratic constraints
WARNING: Only barrier available for SOCP models
Coefficient statistics:
  Matrix range    [1e+00, 1e+06]
  Objective range [2e+04, 1e+07]
  Bounds range    [1e+00, 1e+06]
  RHS range       [1e+00, 1e+06]
Presolve removed 38 rows and 26 columns
Presolve time: 0.03s
Presolved: 1377 rows, 703 columns, 6623 nonzeros
Variable types: 477 continuous, 226 integer (183 binary)
Optimize a model with 1377 rows, 703 columns and 6623 nonzeros
Coefficient statistics:
  Matrix range    [1e+00, 1e+06]
  Objective range [2e+04, 1e+07]
  Bounds range    [1e+00, 1e+06]
  RHS range       [1e+00, 1e+06]

Concurrent LP optimizer: dual simplex and barrier
Showing barrier log only...

Presolve removed 124 rows and 81 columns
Presolved: 1253 rows, 624 columns, 6044 nonzeros

Root barrier log...

Ordering time: 0.02s

Barrier performed 0 iterations in 0.06 seconds
Barrier solve interrupted - model solved by another algorithm


Solved with dual simplex
Solved in 68 iterations and 0.06 seconds
Optimal objective  9.990310877e+06

Root relaxation: objective 9.990311e+06, 68 iterations, 0.02 seconds

    Nodes    |    Current Node    |     Objective Bounds      |     Work
 Expl Unexpl |  Obj  Depth IntInf | Incumbent    BestBd   Gap | It/Node Time

     0     0 9990310.88    0   25          - 9990310.88      -     -    0s
     0     0 1.8619e+07    0   27          - 1.8619e+07      -     -    0s
     0     0 2.1904e+07    0    9          - 2.1904e+07      -     -    0s
     0     0 2.1905e+07    0   22          - 2.1905e+07      -     -    0s
     0     0 2.1905e+07    0   17          - 2.1905e+07      -     -    0s
     0     0 2.1905e+07    0   17          - 2.1905e+07      -     -    0s
     0     0 2.1905e+07    0   16          - 2.1905e+07      -     -    0s
H    0     0                    4.284860e+07 2.1905e+07  48.9%     -    0s
     0     0 2.1905e+07    0   15 4.2849e+07 2.1905e+07  48.9%     -    0s
H    0     0                    3.284430e+07 2.1905e+07  33.3%     -    0s
     0     2 2.1905e+07    0   15 3.2844e+07 2.1905e+07  33.3%     -    0s
H  178   108                    3.283220e+07 2.2001e+07  33.0%  19.8    0s
H  714   281                    3.282330e+07 2.2236e+07  32.3%  21.2    0s
H  748   277                    3.278200e+07 2.2261e+07  32.1%  21.5    0s
H 1498   466                    3.276990e+07 2.2475e+07  31.4%  22.5    0s
* 3584   820              19    3.273830e+07 2.2842e+07  30.2%  24.8    1s
  6133   577     cutoff   28      3.2738e+07 2.2907e+07  30.0%  33.2    5s

Cutting planes:
  Learned: 2
  Gomory: 5
  Cover: 1
  Implied bound: 15
  Clique: 3
  MIR: 6
  Flow cover: 11
  GUB cover: 2
  Zero half: 18

Explored 7517 nodes (299382 simplex iterations) in 6.20 seconds
Thread count was 4 (of 4 available processors)

Optimal solution found (tolerance 1.00e-04)
Best objective 3.273830000000e+07, best bound 3.273830000000e+07, gap 0.0%
k_c1	99999.99999999983
k_c2	1000000.0
k_c3	200000.0
k_c4	29999.999999999825
k_c5	190000.0
k_c6	1000000.0
k_c7	120000.0
k_c8	70000.0
k_dN	-0.0
o_1	-0.0
o_2	0.0
o_3	-0.0
o_4	-0.0
o_5	-0.0
o_6	-0.0
o_7	-0.0
o_8	0.0
p_1	0.0
p_2	0.0
p_3	1.0
p_4	0.0
p_5	0.0
p_6	1.0
p_7	0.0
p_8	0.0
phi_c1	31495.0
phi_c2	39549.99999999999
phi_c3	20664.0
phi_c4	27267.0
phi_c5	24665.999999999996
phi_c6	26779.0
phi_c7	17975.99999999999
phi_c8	1893.0
phi_dN	-0.0
pi_c1	-0.0
pi_c2	-0.0
pi_c3	52557.00000000001
pi_c4	-0.0
pi_c5	-0.0
pi_c6	23221.0
pi_c7	-0.0
pi_c8	-0.0
pi_dN	-0.0
tauD_c1	584200.0
tauD_c2	50000.0
tauD_c3	200000.0
tauD_c4	650000.0
tauD_c5	500000.0
tauD_c6	86775.0
tauD_c7	800000.0
tauD_c8	922925.0
tauD_d0	-0.0
tauD_dN	1000000.0
tauS_c1	833975.0
tauS_c2	104950.0
tauS_c3	270000.0
tauS_c4	172925.0
tauS_c5	882425.0
tauS_c6	434325.0
tauS_c7	133025.0
tauS_c8	912925.0
tauS_d0	-0.0
tauS_dN	601825.0
x_c1_c4	1.0
x_c2_c3	1.0
x_c3_c5	1.0
x_c4_dN	1.0
x_c5_c7	1.0
x_c6_c1	1.0
x_c7_c8	1.0
x_c8_dN	1.0
x_d0_c2	1.0
x_d0_c6	1.0
z_c3_c6	1.0
z_c6_dN	1.0
z_d0_c3	1.0
